benchmarks_CP/INST_49x49/50/inst49x49_50_61.dzn
S=7;
start=[|
-1,	14,	17,	44,	-1,	42,	-1,	10,	6,	-1,	-1,	41,	-1,	-1,	-1,	-1,	-1,	1,	49,	-1,	-1,	-1,	-1,	-1,	-1,	31,	29,	-1,	-1,	-1,	15,	38,	-1,	-1,	-1,	-1,	-1,	43,	4,	-1,	-1,	34,	25,	9,	30,	28,	26,	47,	-1|
-1,	-1,	-1,	-1,	-1,	-1,	-1,	13,	-1,	23,	17,	-1,	11,	-1,	14,	31,	-1,	6,	-1,	-1,	-1,	-1,	-1,	16,	-1,	46,	-1,	40,	-1,	37,	12,	-1,	39,	-1,	48,	19,	45,	-1,	36,	-1,	8,	20,	41,	-1,	-1,	33,	-1,	27,	18|
-1,	-1,	-1,	24,	36,	-1,	-1,	-1,	4,	27,	-1,	-1,	32,	43,	29,	-1,	12,	-1,	-1,	22,	10,	-1,	21,	-1,	42,	-1,	38,	-1,	-1,	2,	25,	49,	-1,	8,	-1,	41,	46,	-1,	9,	-1,	26,	23,	6,	-1,	1,	-1,	39,	-1,	-1|
-1,	33,	-1,	-1,	-1,	7,	27,	-1,	-1,	49,	15,	24,	12,	-1,	-1,	47,	2,	21,	18,	40,	34,	-1,	48,	-1,	-1,	-1,	26,	4,	46,	-1,	-1,	14,	-1,	-1,	-1,	16,	31,	-1,	28,	29,	1,	32,	19,	22,	-1,	38,	-1,	43,	-1|
-1,	-1,	10,	-1,	22,	23,	-1,	-1,	45,	-1,	31,	-1,	-1,	9,	36,	43,	17,	-1,	41,	-1,	37,	7,	-1,	-1,	13,	12,	-1,	19,	-1,	-1,	-1,	-1,	-1,	27,	20,	5,	-1,	-1,	49,	15,	6,	35,	-1,	24,	16,	-1,	48,	-1,	14|
-1,	39,	-1,	-1,	-1,	-1,	-1,	3,	-1,	-1,	-1,	26,	-1,	37,	-1,	13,	5,	-1,	-1,	33,	-1,	30,	-1,	-1,	9,	-1,	-1,	-1,	35,	-1,	-1,	21,	29,	-1,	17,	-1,	-1,	14,	-1,	-1,	-1,	-1,	-1,	23,	46,	-1,	4,	20,	-1|
28,	46,	-1,	19,	-1,	41,	-1,	36,	-1,	-1,	-1,	18,	-1,	-1,	26,	4,	-1,	25,	23,	9,	20,	-1,	33,	22,	17,	-1,	14,	37,	1,	-1,	42,	32,	43,	-1,	10,	-1,	7,	30,	3,	-1,	11,	13,	44,	-1,	-1,	-1,	-1,	49,	-1|
-1,	45,	-1,	-1,	6,	-1,	-1,	24,	35,	40,	44,	-1,	-1,	26,	34,	28,	-1,	16,	46,	-1,	-1,	10,	-1,	-1,	-1,	42,	-1,	-1,	-1,	25,	37,	-1,	-1,	47,	-1,	-1,	17,	12,	-1,	19,	-1,	29,	3,	21,	41,	4,	-1,	36,	-1|
19,	-1,	-1,	-1,	5,	11,	-1,	34,	14,	2,	16,	-1,	-1,	-1,	-1,	-1,	-1,	-1,	-1,	21,	49,	44,	-1,	-1,	-1,	23,	-1,	6,	4,	-1,	43,	46,	33,	-1,	-1,	31,	27,	-1,	40,	-1,	15,	-1,	-1,	18,	-1,	20,	-1,	39,	38|
-1,	23,	-1,	-1,	25,	40,	37,	-1,	42,	13,	1,	-1,	4,	-1,	47,	44,	43,	22,	7,	-1,	-1,	34,	-1,	-1,	-1,	-1,	24,	-1,	49,	-1,	-1,	-1,	20,	26,	-1,	-1,	-1,	11,	48,	9,	36,	38,	5,	-1,	29,	-1,	-1,	-1,	-1|
-1,	-1,	-1,	12,	32,	-1,	39,	-1,	37,	41,	-1,	-1,	-1,	22,	10,	-1,	25,	-1,	3,	42,	-1,	26,	-1,	-1,	29,	1,	-1,	-1,	-1,	-1,	-1,	44,	-1,	28,	2,	7,	-1,	-1,	-1,	-1,	13,	24,	27,	49,	48,	-1,	15,	-1,	11|
41,	48,	-1,	46,	-1,	34,	-1,	8,	23,	-1,	-1,	-1,	-1,	-1,	15,	30,	40,	-1,	1,	-1,	12,	4,	36,	-1,	-1,	-1,	7,	-1,	-1,	-1,	-1,	-1,	6,	-1,	-1,	49,	-1,	-1,	-1,	-1,	-1,	-1,	-1,	-1,	-1,	22,	-1,	31,	44|
15,	-1,	-1,	29,	-1,	8,	-1,	12,	-1,	-1,	30,	46,	-1,	-1,	-1,	-1,	-1,	5,	2,	-1,	-1,	27,	40,	-1,	-1,	11,	9,	31,	-1,	-1,	13,	-1,	22,	45,	1,	42,	4,	-1,	-1,	10,	-1,	44,	23,	25,	47,	-1,	43,	-1,	6|
44,	-1,	-1,	-1,	7,	49,	9,	-1,	-1,	-1,	43,	-1,	36,	29,	27,	-1,	-1,	20,	4,	32,	-1,	-1,	22,	12,	3,	-1,	-1,	5,	38,	-1,	41,	23,	-1,	-1,	19,	-1,	33,	35,	-1,	-1,	14,	-1,	-1,	-1,	42,	-1,	-1,	-1,	30|
-1,	16,	-1,	-1,	46,	-1,	12,	-1,	-1,	-1,	13,	4,	43,	-1,	-1,	-1,	-1,	30,	37,	-1,	-1,	21,	-1,	-1,	19,	-1,	-1,	-1,	-1,	-1,	39,	-1,	-1,	25,	24,	36,	48,	-1,	-1,	32,	23,	27,	-1,	33,	-1,	29,	14,	-1,	-1|
-1,	-1,	45,	36,	-1,	-1,	17,	29,	-1,	46,	-1,	-1,	-1,	-1,	-1,	-1,	-1,	-1,	33,	8,	-1,	-1,	23,	-1,	-1,	6,	41,	-1,	42,	3,	34,	22,	-1,	-1,	-1,	24,	-1,	-1,	10,	28,	-1,	26,	47,	31,	5,	-1,	-1,	37,	-1|
13,	10,	-1,	-1,	-1,	1,	-1,	28,	5,	11,	-1,	8,	-1,	-1,	25,	-1,	47,	32,	-1,	34,	-1,	16,	-1,	-1,	20,	4,	-1,	-1,	-1,	30,	-1,	-1,	14,	-1,	27,	-1,	39,	46,	35,	-1,	37,	42,	48,	-1,	40,	45,	7,	-1,	-1|
-1,	29,	-1,	-1,	-1,	-1,	-1,	-1,	-1,	-1,	22,	35,	-1,	-1,	-1,	24,	-1,	-1,	-1,	-1,	-1,	-1,	26,	-1,	32,	-1,	2,	-1,	-1,	-1,	-1,	-1,	23,	-1,	-1,	33,	5,	-1,	-1,	31,	-1,	-1,	-1,	44,	-1,	-1,	49,	11,	-1|
-1,	38,	-1,	-1,	-1,	-1,	7,	31,	16,	1,	-1,	-1,	48,	-1,	39,	23,	-1,	42,	40,	20,	-1,	-1,	14,	-1,	-1,	-1,	18,	-1,	11,	-1,	21,	8,	-1,	29,	47,	3,	6,	-1,	-1,	-1,	19,	2,	26,	-1,	9,	30,	28,	25,	43|
-1,	-1,	32,	-1,	40,	-1,	-1,	-1,	-1,	-1,	33,	-1,	34,	-1,	1,	-1,	14,	28,	-1,	26,	2,	-1,	42,	-1,	31,	-1,	39,	25,	41,	49,	5,	13,	-1,	-1,	-1,	20,	29,	44,	-1,	22,	-1,	43,	-1,	16,	8,	-1,	-1,	-1,	-1|
37,	24,	9,	28,	-1,	-1,	-1,	47,	-1,	36,	26,	-1,	-1,	-1,	6,	29,	35,	-1,	-1,	5,	43,	-1,	-1,	1,	-1,	44,	-1,	3,	-1,	-1,	-1,	31,	-1,	-1,	-1,	-1,	8,	34,	-1,	-1,	4,	14,	-1,	19,	-1,	15,	2,	-1,	23|
-1,	6,	-1,	39,	-1,	-1,	28,	4,	29,	-1,	-1,	25,	-1,	27,	-1,	-1,	-1,	48,	20,	1,	-1,	-1,	-1,	7,	2,	-1,	30,	22,	26,	-1,	-1,	9,	-1,	-1,	36,	14,	-1,	31,	43,	-1,	33,	-1,	24,	37,	-1,	-1,	21,	-1,	40|
-1,	21,	-1,	-1,	31,	-1,	-1,	46,	-1,	5,	40,	-1,	45,	-1,	-1,	27,	36,	49,	47,	-1,	-1,	48,	-1,	41,	6,	-1,	-1,	1,	14,	15,	38,	-1,	-1,	43,	25,	23,	13,	29,	24,	-1,	35,	18,	9,	-1,	19,	-1,	22,	-1,	34|
-1,	-1,	-1,	-1,	-1,	-1,	42,	-1,	11,	17,	-1,	1,	-1,	-1,	21,	15,	24,	-1,	-1,	-1,	-1,	45,	-1,	43,	-1,	-1,	44,	13,	23,	6,	-1,	19,	-1,	-1,	-1,	-1,	-1,	-1,	-1,	47,	12,	48,	30,	28,	-1,	-1,	-1,	46,	-1|
-1,	-1,	-1,	45,	47,	5,	-1,	-1,	-1,	42,	-1,	-1,	-1,	36,	13,	35,	-1,	-1,	-1,	17,	23,	18,	24,	-1,	49,	9,	-1,	-1,	2,	-1,	20,	-1,	-1,	48,	-1,	-1,	34,	21,	-1,	-1,	30,	8,	-1,	26,	33,	43,	25,	-1,	15|
-1,	-1,	48,	41,	37,	17,	-1,	-1,	-1,	-1,	9,	-1,	14,	-1,	-1,	46,	26,	-1,	43,	10,	29,	19,	28,	40,	35,	25,	23,	15,	47,	13,	-1,	-1,	34,	-1,	-1,	-1,	-1,	42,	-1,	3,	16,	-1,	-1,	12,	-1,	-1,	-1,	1,	-1|
14,	-1,	-1,	-1,	43,	-1,	-1,	20,	26,	35,	3,	37,	-1,	-1,	-1,	22,	8,	-1,	-1,	19,	25,	-1,	-1,	11,	-1,	21,	33,	-1,	39,	7,	1,	-1,	-1,	31,	-1,	2,	-1,	9,	-1,	-1,	-1,	49,	-1,	29,	-1,	-1,	23,	-1,	48|
-1,	-1,	20,	-1,	-1,	-1,	18,	-1,	-1,	30,	34,	43,	21,	15,	3,	2,	38,	-1,	-1,	-1,	33,	14,	39,	-1,	8,	-1,	36,	16,	12,	-1,	-1,	-1,	28,	32,	37,	-1,	1,	-1,	-1,	-1,	-1,	7,	42,	47,	-1,	49,	13,	-1,	-1|
11,	8,	-1,	-1,	12,	-1,	21,	-1,	-1,	15,	-1,	48,	6,	41,	40,	1,	49,	-1,	13,	43,	22,	46,	-1,	-1,	-1,	-1,	32,	18,	25,	-1,	-1,	47,	-1,	34,	30,	-1,	24,	-1,	-1,	-1,	38,	-1,	7,	2,	26,	16,	36,	5,	29|
-1,	-1,	-1,	26,	-1,	-1,	-1,	43,	25,	10,	-1,	29,	28,	19,	-1,	38,	34,	31,	30,	24,	8,	22,	35,	-1,	-1,	2,	-1,	21,	-1,	-1,	27,	-1,	-1,	46,	-1,	48,	-1,	45,	20,	-1,	-1,	9,	-1,	-1,	49,	13,	-1,	42,	47|
-1,	-1,	36,	-1,	19,	10,	45,	-1,	-1,	-1,	-1,	-1,	30,	11,	-1,	-1,	-1,	-1,	9,	-1,	39,	20,	-1,	27,	7,	28,	-1,	8,	-1,	-1,	-1,	-1,	48,	2,	-1,	-1,	-1,	-1,	14,	34,	-1,	4,	-1,	6,	-1,	-1,	38,	-1,	31|
7,	-1,	-1,	-1,	14,	46,	1,	-1,	-1,	-1,	-1,	2,	44,	8,	20,	48,	21,	-1,	19,	29,	28,	-1,	-1,	-1,	-1,	30,	-1,	-1,	-1,	-1,	-1,	41,	-1,	-1,	26,	-1,	-1,	49,	-1,	-1,	-1,	40,	-1,	32,	-1,	-1,	-1,	23,	4|
-1,	-1,	25,	4,	27,	24,	29,	9,	-1,	38,	-1,	21,	40,	-1,	33,	-1,	11,	26,	42,	-1,	5,	-1,	-1,	14,	12,	-1,	-1,	34,	-1,	-1,	31,	15,	32,	49,	-1,	37,	-1,	2,	-1,	-1,	-1,	10,	-1,	-1,	43,	35,	8,	-1,	3|
38,	-1,	-1,	-1,	-1,	-1,	40,	39,	33,	47,	-1,	-1,	-1,	-1,	-1,	-1,	15,	46,	-1,	3,	4,	17,	41,	26,	1,	-1,	43,	29,	-1,	-1,	24,	36,	-1,	42,	-1,	-1,	12,	-1,	8,	23,	-1,	6,	28,	48,	34,	-1,	20,	-1,	22|
48,	-1,	-1,	-1,	28,	32,	-1,	14,	17,	45,	20,	-1,	35,	12,	37,	41,	16,	-1,	44,	-1,	27,	33,	38,	-1,	24,	-1,	-1,	9,	-1,	-1,	-1,	1,	19,	39,	8,	-1,	47,	3,	-1,	21,	31,	22,	11,	40,	25,	-1,	18,	30,	46|
-1,	44,	46,	7,	38,	-1,	-1,	-1,	-1,	-1,	-1,	-1,	17,	40,	32,	-1,	28,	47,	-1,	31,	1,	-1,	34,	-1,	16,	-1,	-1,	-1,	22,	27,	-1,	-1,	-1,	9,	-1,	13,	21,	23,	-1,	35,	-1,	3,	36,	-1,	-1,	-1,	-1,	29,	24|
-1,	25,	-1,	-1,	-1,	-1,	47,	5,	27,	14,	-1,	-1,	-1,	-1,	-1,	37,	-1,	19,	38,	49,	21,	-1,	18,	-1,	-1,	-1,	35,	-1,	43,	1,	3,	-1,	44,	-1,	41,	-1,	16,	48,	7,	6,	20,	15,	-1,	-1,	-1,	31,	-1,	-1,	-1|
-1,	37,	19,	-1,	41,	-1,	8,	25,	31,	24,	-1,	-1,	29,	-1,	-1,	-1,	-1,	-1,	34,	-1,	26,	-1,	1,	-1,	-1,	13,	-1,	30,	-1,	17,	36,	-1,	-1,	14,	-1,	-1,	-1,	-1,	22,	11,	-1,	12,	40,	-1,	23,	39,	-1,	-1,	-1|
-1,	-1,	34,	-1,	-1,	36,	-1,	-1,	-1,	-1,	8,	-1,	-1,	-1,	-1,	-1,	-1,	-1,	-1,	25,	46,	-1,	31,	-1,	22,	-1,	27,	-1,	45,	42,	-1,	-1,	13,	-1,	16,	43,	-1,	-1,	29,	-1,	-1,	17,	-1,	-1,	-1,	-1,	-1,	41,	1|
10,	22,	-1,	15,	9,	39,	-1,	-1,	-1,	-1,	41,	-1,	-1,	38,	43,	-1,	-1,	-1,	-1,	-1,	24,	-1,	29,	37,	-1,	-1,	-1,	-1,	48,	-1,	7,	-1,	12,	11,	23,	-1,	-1,	-1,	31,	36,	47,	-1,	-1,	34,	13,	-1,	-1,	-1,	33|
12,	43,	-1,	-1,	1,	14,	31,	45,	-1,	26,	42,	23,	-1,	30,	-1,	-1,	-1,	29,	-1,	-1,	-1,	-1,	17,	47,	46,	-1,	-1,	-1,	-1,	35,	28,	25,	10,	-1,	-1,	-1,	-1,	24,	-1,	2,	-1,	39,	-1,	-1,	-1,	5,	44,	-1,	-1|
32,	-1,	24,	2,	-1,	-1,	5,	1,	44,	-1,	11,	9,	-1,	13,	-1,	39,	41,	-1,	35,	-1,	-1,	-1,	-1,	33,	36,	3,	-1,	26,	8,	38,	46,	-1,	49,	30,	-1,	-1,	-1,	18,	42,	-1,	-1,	37,	16,	43,	-1,	-1,	-1,	48,	28|
-1,	31,	41,	-1,	-1,	44,	-1,	-1,	1,	-1,	-1,	5,	26,	7,	-1,	-1,	48,	43,	27,	18,	-1,	-1,	46,	10,	30,	-1,	-1,	32,	40,	14,	2,	28,	-1,	23,	-1,	22,	3,	-1,	37,	13,	-1,	21,	-1,	42,	-1,	36,	47,	-1,	-1|
36,	-1,	-1,	49,	20,	-1,	-1,	16,	-1,	28,	21,	-1,	8,	-1,	-1,	45,	7,	-1,	-1,	14,	19,	-1,	-1,	-1,	26,	-1,	17,	11,	-1,	48,	-1,	35,	1,	18,	12,	-1,	23,	-1,	46,	-1,	-1,	-1,	-1,	38,	15,	37,	41,	-1,	-1|
34,	17,	-1,	22,	-1,	45,	-1,	-1,	-1,	4,	24,	44,	-1,	-1,	-1,	-1,	-1,	13,	29,	-1,	47,	31,	9,	21,	-1,	43,	-1,	39,	37,	-1,	33,	-1,	-1,	-1,	-1,	26,	35,	27,	-1,	1,	7,	-1,	-1,	46,	-1,	48,	40,	12,	-1|
23,	-1,	37,	18,	-1,	28,	-1,	-1,	36,	9,	-1,	13,	20,	46,	35,	42,	1,	-1,	-1,	44,	-1,	24,	6,	-1,	33,	-1,	47,	7,	10,	-1,	-1,	-1,	38,	5,	-1,	-1,	-1,	-1,	-1,	-1,	-1,	-1,	-1,	30,	14,	-1,	31,	-1,	21|
6,	-1,	-1,	-1,	-1,	3,	-1,	-1,	30,	-1,	45,	15,	37,	35,	38,	-1,	10,	41,	-1,	23,	-1,	1,	-1,	-1,	-1,	27,	-1,	-1,	-1,	-1,	29,	-1,	-1,	-1,	-1,	-1,	43,	-1,	12,	-1,	44,	-1,	18,	20,	-1,	-1,	5,	22,	13|
9,	42,	-1,	5,	48,	26,	19,	-1,	-1,	-1,	-1,	27,	-1,	-1,	2,	32,	-1,	33,	21,	-1,	40,	29,	-1,	-1,	-1,	-1,	8,	23,	15,	31,	-1,	45,	-1,	-1,	-1,	-1,	10,	-1,	-1,	14,	39,	-1,	-1,	7,	11,	44,	6,	-1,	17|
-1,	35,	1,	-1,	-1,	13,	32,	41,	-1,	43,	6,	14,	10,	-1,	31,	-1,	-1,	8,	39,	30,	-1,	-1,	5,	19,	-1,	16,	12,	44,	-1,	26,	-1,	-1,	9,	7,	46,	-1,	38,	4,	2,	-1,	-1,	-1,	-1,	-1,	3,	23,	-1,	28,	25|];
