sudoku-ls/benchmarks_LEQ/INST_49x49/50/inst49x49_50_61.txt
7
1
40	14	-1	44	21	-1	-1	-1	6	22	19	41	46	20	-1	7	-1	-1	49	16	35	-1	32	23	-1	31	29	2	-1	36	15	38	-1	-1	13	12	-1	-1	4	-1	48	34	25	9	30	-1	26	47	-1
-1	9	-1	35	-1	47	-1	13	-1	-1	17	42	11	-1	-1	31	44	6	32	-1	-1	-1	-1	-1	10	46	-1	-1	24	-1	-1	34	39	-1	-1	-1	-1	25	-1	38	8	-1	-1	5	-1	33	29	27	18
-1	18	5	24	-1	48	-1	30	4	27	14	-1	-1	-1	-1	-1	-1	3	28	22	10	11	-1	35	-1	-1	38	45	31	2	25	49	-1	8	-1	-1	-1	-1	9	33	-1	-1	-1	-1	1	-1	-1	15	37
-1	-1	30	-1	-1	7	27	-1	-1	49	-1	24	-1	-1	42	-1	2	-1	18	-1	-1	41	-1	44	25	20	26	-1	46	23	11	-1	5	6	-1	-1	-1	17	28	29	1	-1	-1	-1	36	38	-1	43	10
-1	32	-1	25	22	-1	3	44	-1	29	-1	38	33	-1	-1	43	17	-1	-1	-1	-1	7	-1	18	-1	12	-1	19	-1	47	-1	4	30	-1	-1	-1	-1	39	49	-1	6	-1	2	24	16	40	48	-1	-1
31	-1	-1	8	34	-1	-1	3	40	-1	25	26	1	37	-1	13	5	38	45	33	-1	-1	-1	36	9	-1	-1	-1	-1	19	16	-1	-1	41	-1	-1	-1	14	18	44	-1	-1	-1	-1	46	11	4	-1	42
28	-1	15	-1	-1	41	38	36	2	16	48	-1	-1	5	-1	-1	39	25	-1	9	-1	-1	-1	-1	-1	-1	14	-1	-1	45	42	32	-1	-1	-1	21	7	30	-1	-1	11	-1	44	35	-1	12	-1	49	8
-1	45	-1	38	-1	43	-1	-1	-1	40	44	-1	-1	26	34	-1	9	16	-1	39	-1	10	-1	-1	-1	42	20	49	30	-1	-1	-1	31	-1	18	1	-1	12	-1	19	32	29	3	-1	41	-1	-1	36	-1
-1	30	3	1	5	11	35	-1	14	-1	16	-1	9	25	48	-1	-1	-1	36	21	49	44	-1	-1	-1	23	13	-1	4	-1	-1	-1	-1	10	-1	-1	27	-1	-1	26	-1	41	-1	18	28	-1	-1	-1	-1
17	-1	31	-1	-1	40	-1	-1	42	13	1	-1	-1	-1	47	-1	43	22	7	41	-1	34	-1	-1	-1	39	24	-1	-1	12	14	27	-1	-1	-1	-1	-1	11	-1	-1	-1	38	-1	-1	29	46	16	19	-1
-1	-1	-1	12	32	-1	39	6	-1	41	38	33	-1	22	-1	-1	-1	23	-1	42	45	26	19	17	29	-1	16	46	-1	-1	40	-1	35	-1	-1	7	30	5	34	43	13	-1	-1	49	48	14	-1	-1	-1
41	-1	13	46	42	-1	-1	-1	-1	32	-1	-1	3	18	15	-1	40	37	-1	38	-1	4	-1	28	43	33	-1	14	5	-1	-1	11	6	-1	29	-1	-1	-1	-1	-1	2	-1	45	10	24	22	35	-1	44
-1	28	16	29	-1	8	36	12	-1	21	-1	46	49	17	-1	-1	33	-1	-1	-1	18	-1	40	38	41	-1	-1	-1	-1	-1	-1	48	-1	45	1	-1	-1	37	-1	-1	-1	44	-1	25	47	-1	-1	26	6
-1	-1	-1	-1	7	-1	-1	-1	-1	-1	-1	28	-1	29	-1	-1	31	-1	-1	32	11	-1	22	-1	3	18	37	5	38	24	41	-1	-1	16	19	8	33	35	-1	45	14	-1	-1	1	-1	-1	17	40	30
26	16	22	-1	-1	-1	12	40	-1	3	13	4	43	44	49	11	-1	30	-1	-1	38	21	-1	34	19	-1	-1	47	-1	28	-1	-1	2	25	24	-1	48	15	-1	32	23	27	-1	33	35	-1	14	-1	20
2	-1	45	36	18	-1	17	-1	-1	-1	-1	-1	15	14	-1	-1	13	27	33	8	-1	-1	23	-1	38	6	-1	43	42	-1	34	22	-1	44	-1	24	-1	7	10	28	21	-1	47	-1	5	-1	-1	-1	-1
-1	10	-1	-1	-1	-1	-1	28	5	-1	2	8	38	-1	-1	-1	47	32	17	-1	31	-1	12	-1	-1	-1	22	-1	-1	-1	6	26	-1	15	-1	-1	39	46	35	49	37	42	48	3	40	-1	7	-1	-1
4	-1	-1	-1	-1	-1	14	-1	9	25	-1	-1	39	-1	46	-1	-1	-1	15	7	-1	-1	26	13	32	45	-1	-1	-1	-1	48	37	23	1	-1	-1	5	16	47	31	-1	-1	34	-1	17	42	-1	11	-1
5	-1	27	34	-1	35	7	-1	16	1	-1	-1	48	45	39	23	-1	42	40	20	-1	37	-1	24	15	17	18	-1	-1	-1	-1	8	-1	29	47	-1	-1	-1	13	-1	19	2	26	36	-1	-1	28	25	43
47	-1	32	-1	40	-1	-1	-1	-1	18	-1	-1	34	-1	1	-1	14	28	10	-1	-1	9	-1	-1	31	-1	39	-1	41	49	-1	13	36	12	-1	20	29	-1	11	-1	-1	-1	38	16	8	-1	-1	-1	-1
-1	24	-1	-1	-1	25	-1	-1	7	-1	-1	30	-1	49	6	29	-1	-1	48	-1	-1	40	-1	1	27	44	46	3	-1	-1	45	-1	-1	-1	-1	-1	8	-1	17	18	-1	14	-1	19	21	15	2	-1	23
49	-1	-1	-1	8	15	-1	-1	-1	44	-1	-1	13	-1	-1	-1	45	-1	-1	1	32	-1	-1	7	-1	10	30	22	26	-1	-1	-1	-1	35	36	14	11	-1	-1	-1	33	-1	-1	37	-1	3	-1	-1	40
-1	-1	7	3	31	-1	-1	-1	-1	-1	-1	39	45	-1	-1	27	36	-1	-1	-1	42	-1	-1	41	-1	26	4	-1	-1	-1	38	-1	-1	-1	25	23	-1	29	24	-1	35	-1	-1	17	-1	-1	-1	8	-1
29	-1	26	-1	-1	-1	-1	-1	11	17	49	-1	7	31	-1	-1	24	-1	16	-1	14	45	-1	43	-1	-1	-1	-1	23	6	4	-1	-1	-1	-1	25	-1	-1	38	-1	-1	-1	30	-1	-1	41	27	46	36
-1	1	-1	-1	-1	-1	-1	19	12	42	-1	22	41	-1	-1	-1	4	-1	-1	17	23	18	24	3	49	9	-1	38	2	-1	-1	-1	-1	-1	40	-1	-1	21	-1	37	30	8	-1	-1	33	-1	-1	7	15
-1	-1	48	41	37	17	-1	32	-1	8	9	6	-1	-1	-1	-1	26	39	-1	10	29	-1	-1	-1	35	25	-1	15	-1	-1	-1	-1	34	21	49	45	22	42	27	-1	16	-1	31	-1	20	2	-1	-1	5
-1	-1	-1	32	43	-1	-1	20	26	35	-1	-1	-1	47	-1	22	8	-1	-1	-1	25	-1	27	-1	34	-1	33	-1	-1	-1	1	-1	46	31	45	-1	-1	9	44	-1	28	-1	4	-1	-1	6	23	10	-1
-1	40	-1	27	10	19	-1	-1	48	-1	34	-1	-1	-1	-1	2	-1	9	31	-1	33	14	39	46	8	-1	-1	16	12	41	-1	24	28	-1	37	6	-1	26	-1	4	17	7	42	-1	45	49	-1	44	-1
11	-1	35	31	-1	-1	21	-1	3	15	-1	48	-1	41	40	-1	-1	-1	-1	43	22	-1	44	-1	-1	37	32	18	25	20	10	-1	-1	-1	-1	27	-1	-1	-1	-1	-1	-1	-1	2	26	16	36	-1	-1
-1	3	-1	-1	23	-1	33	43	25	10	-1	-1	-1	-1	-1	38	-1	31	-1	-1	8	-1	-1	-1	-1	-1	-1	-1	17	-1	27	-1	-1	-1	14	48	32	-1	-1	7	-1	9	15	41	-1	13	1	42	47
22	-1	-1	-1	-1	10	-1	-1	-1	37	46	-1	30	11	-1	12	-1	-1	-1	47	39	-1	25	-1	-1	-1	3	8	29	40	18	5	-1	-1	-1	-1	41	1	14	-1	-1	4	33	6	-1	-1	38	24	-1
-1	13	-1	-1	14	46	-1	22	-1	34	-1	-1	-1	8	-1	48	-1	17	19	-1	-1	-1	-1	-1	45	-1	-1	-1	-1	33	35	-1	-1	38	26	-1	-1	49	-1	-1	43	-1	12	-1	27	9	37	-1	-1
20	-1	-1	4	27	-1	-1	-1	18	-1	23	21	40	1	33	36	11	-1	42	6	5	-1	13	-1	12	48	19	-1	7	22	31	15	-1	-1	-1	-1	-1	2	16	30	46	-1	17	39	43	-1	-1	45	3
38	5	-1	30	-1	-1	40	39	-1	-1	7	31	27	32	-1	10	15	-1	25	3	-1	17	-1	-1	-1	-1	-1	-1	-1	-1	-1	36	-1	42	11	-1	12	-1	-1	-1	-1	-1	-1	-1	34	-1	20	14	22
-1	15	42	-1	28	-1	-1	14	-1	-1	20	-1	-1	-1	-1	41	-1	-1	44	-1	-1	33	-1	5	24	36	-1	-1	13	-1	-1	1	19	-1	8	-1	47	3	-1	21	-1	-1	-1	40	25	-1	-1	30	-1
30	-1	46	-1	-1	20	-1	-1	-1	-1	37	12	-1	-1	32	18	28	-1	-1	31	1	2	-1	-1	16	14	-1	41	-1	-1	-1	39	-1	9	5	-1	21	23	45	-1	10	-1	36	-1	-1	-1	42	29	24
-1	25	-1	13	-1	-1	-1	5	27	-1	-1	36	-1	-1	17	37	-1	19	-1	-1	-1	-1	18	-1	-1	40	-1	12	-1	1	-1	29	-1	-1	41	-1	-1	48	7	6	-1	-1	-1	-1	-1	-1	-1	-1	26
3	-1	-1	-1	41	18	-1	25	31	-1	35	10	29	-1	-1	-1	42	2	34	-1	-1	43	-1	-1	-1	-1	49	-1	-1	-1	-1	33	47	14	-1	46	28	-1	-1	11	27	12	40	15	-1	39	-1	-1	7
-1	26	34	21	11	-1	23	-1	15	-1	8	47	2	-1	44	33	-1	-1	-1	-1	46	39	-1	-1	22	-1	27	24	-1	42	-1	40	-1	4	16	-1	9	-1	29	-1	49	-1	20	14	-1	-1	30	-1	-1
10	-1	4	-1	9	39	-1	21	46	6	-1	-1	16	-1	43	-1	30	-1	-1	27	-1	32	29	-1	-1	-1	-1	20	-1	-1	-1	-1	12	-1	-1	44	-1	8	31	36	47	-1	-1	-1	-1	-1	19	-1	-1
12	-1	-1	16	-1	-1	31	-1	-1	26	-1	23	18	30	9	20	-1	-1	-1	-1	36	-1	17	47	46	-1	-1	48	-1	-1	28	-1	-1	-1	-1	-1	-1	24	33	-1	-1	39	-1	-1	-1	5	-1	-1	-1
-1	-1	-1	2	-1	29	5	1	44	-1	11	9	-1	-1	22	39	41	-1	-1	-1	-1	23	-1	-1	36	3	-1	26	8	-1	46	6	-1	-1	31	-1	-1	-1	42	-1	-1	37	-1	-1	-1	47	-1	-1	28
-1	31	-1	-1	-1	44	-1	-1	1	-1	29	5	26	7	12	-1	48	-1	27	-1	-1	-1	-1	-1	30	-1	45	32	-1	-1	-1	-1	25	-1	39	22	3	20	-1	13	-1	-1	-1	42	-1	-1	-1	-1	16
-1	-1	-1	49	20	27	-1	-1	39	28	-1	-1	8	2	5	-1	7	4	22	14	19	13	3	42	26	-1	-1	-1	44	-1	-1	-1	-1	18	12	32	-1	6	46	25	24	-1	43	38	-1	37	-1	33	9
34	-1	-1	-1	-1	-1	-1	-1	49	-1	-1	-1	-1	-1	11	16	20	13	29	-1	-1	31	-1	21	-1	43	-1	-1	37	32	-1	-1	-1	36	-1	-1	-1	27	15	1	-1	5	8	46	10	-1	-1	-1	-1
23	12	-1	-1	16	28	-1	-1	-1	9	-1	-1	20	46	-1	42	-1	34	26	-1	-1	-1	6	15	33	-1	-1	7	10	-1	-1	43	38	5	4	40	49	19	41	-1	-1	45	-1	-1	14	-1	31	-1	21
6	-1	-1	14	4	3	46	11	-1	31	45	-1	37	-1	38	25	-1	-1	24	-1	9	-1	-1	49	40	-1	-1	-1	21	-1	29	42	-1	-1	34	-1	43	-1	12	8	-1	-1	-1	-1	-1	26	5	-1	-1
9	42	43	-1	48	26	19	-1	-1	-1	-1	-1	25	-1	2	-1	-1	-1	-1	-1	40	-1	4	-1	-1	41	8	-1	-1	31	49	45	24	13	-1	-1	10	28	30	-1	-1	16	-1	7	11	-1	-1	35	17
21	-1	1	40	-1	13	-1	41	-1	-1	6	-1	-1	48	31	-1	37	8	39	-1	15	-1	-1	-1	-1	-1	12	44	-1	26	-1	20	-1	7	46	17	-1	-1	-1	42	34	-1	29	45	3	23	-1	-1	25
49 
39 49 17 6
47 23 18 27
40 12 7 39
42 20 11 6
24 25 21 20
35 27 45 35
42 21 41 26
11 16 41 19
43 41 38 47
7 35 24 38
26 47 43 4
6 6 14 24
24 28 3 44
4 32 25 43
43 5 9 41
27 32 3 1
44 27 45 2
45 8 34 41
17 29 34 46
42 10 11 2
38 35 20 9
13 33 24 6
38 45 3 42
1 40 46 22
39 20 25 47
30 4 31 8
35 21 18 8
5 29 21 4
17 24 22 9
46 44 32 26
15 6 19 8
33 33 21 35
48 18 40 49
43 48 42 36
39 1 31 18
17 28 11 29
1 37 40 24
43 26 33 10
30 1 4 14
24 37 9 39
18 21 16 27
15 4 31 41
25 46 39 36
14 1 11 32
39 29 31 7
16 10 14 42
21 8 23 19
31 33 34 44
43 43 31 2
